
Gurobi 9.0.1 (linux64) logging started Fri May  1 14:49:34 2020

Gurobi Optimizer version 9.0.1 build v9.0.1rc0 (linux64)
Optimize a model with 10948 rows, 9782 columns and 53724 nonzeros
Model fingerprint: 0x4f687639
Variable types: 0 continuous, 9782 integer (9702 binary)
Coefficient statistics:
  Matrix range     [1e+00, 2e+01]
  Objective range  [5e+00, 1e+02]
  Bounds range     [1e+00, 1e+00]
  RHS range        [1e+00, 2e+01]

User MIP start produced solution with objective 1167 (0.03s)
Loaded user MIP start with objective 1167

Presolve removed 8224 rows and 1302 columns
Presolve time: 4.47s
Presolved: 2724 rows, 8480 columns, 27520 nonzeros
Variable types: 0 continuous, 8480 integer (8440 binary)

Root relaxation: objective 6.365500e+02, 1715 iterations, 0.10 seconds

    Nodes    |    Current Node    |     Objective Bounds      |     Work
 Expl Unexpl |  Obj  Depth IntInf | Incumbent    BestBd   Gap | It/Node Time

     0     0  636.55000    0   83 1167.00000  636.55000  45.5%     -    4s
     0     0  697.50000    0   87 1167.00000  697.50000  40.2%     -    4s
     0     0  710.37000    0  103 1167.00000  710.37000  39.1%     -    5s
     0     0  713.02857    0  114 1167.00000  713.02857  38.9%     -    5s
     0     0  713.02857    0  119 1167.00000  713.02857  38.9%     -    5s
     0     0  728.66667    0  114 1167.00000  728.66667  37.6%     -    5s
     0     0  730.10000    0  114 1167.00000  730.10000  37.4%     -    5s
     0     0  731.00000    0  119 1167.00000  731.00000  37.4%     -    5s
     0     0  731.00000    0  116 1167.00000  731.00000  37.4%     -    5s
     0     0  734.25000    0  145 1167.00000  734.25000  37.1%     -    5s
     0     0  734.50000    0  138 1167.00000  734.50000  37.1%     -    6s
     0     0  734.50000    0  137 1167.00000  734.50000  37.1%     -    6s
     0     0  734.50000    0  146 1167.00000  734.50000  37.1%     -    6s
     0     0  734.50000    0  118 1167.00000  734.50000  37.1%     -    6s
     0     0  734.50000    0  119 1167.00000  734.50000  37.1%     -    6s
     0     0  734.50000    0  122 1167.00000  734.50000  37.1%     -    6s
     0     0  734.50000    0  104 1167.00000  734.50000  37.1%     -    6s
     0     0  734.50000    0  110 1167.00000  734.50000  37.1%     -    6s
     0     0  734.50000    0  102 1167.00000  734.50000  37.1%     -    6s
     0     0  734.50000    0  106 1167.00000  734.50000  37.1%     -    6s
     0     0  734.50000    0  124 1167.00000  734.50000  37.1%     -    7s
     0     0  734.50000    0  124 1167.00000  734.50000  37.1%     -    7s
     0     0  734.50000    0  105 1167.00000  734.50000  37.1%     -    7s
     0     0  734.50000    0  105 1167.00000  734.50000  37.1%     -    7s
H    0     0                    1163.0000000  734.50000  36.8%     -    9s
     3     3  740.75000    2   44 1163.00000  739.75000  36.4%  3405   10s
H  502   450                    1044.0000000  744.00000  28.7%  20.3   14s
   503   453  744.00000    2   44 1044.00000  744.00000  28.7%  40.7   15s
H 1002   889                    1024.0000000  744.00000  27.3%  23.7   19s
  1033   915  744.00000   16  133 1024.00000  744.00000  27.3%  36.3   22s
  1183  1015  744.00000   91   57 1024.00000  744.00000  27.3%  35.4   25s
  1615  1158  754.13333  129   49 1024.00000  744.00000  27.3%  31.8   30s
  1728  1234  744.07692   31   86 1024.00000  744.00000  27.3%  35.3   35s
H 1957  1090                     823.0000000  744.00000  9.60%  32.3   37s
  2040    85  744.00000   77   67  823.00000  744.00000  9.60%   4.0   40s
  2484   476  744.00000   92   57  823.00000  744.00000  9.60%   6.6   45s
H 2544   443                     744.0000000  744.00000  0.00%  10.6   48s

Cutting planes:
  Learned: 4
  Gomory: 2
  Clique: 1
  MIR: 4
  Flow cover: 5
  Zero half: 7
  RLT: 2
  Relax-and-lift: 1

Explored 2545 nodes (99986 simplex iterations) in 48.17 seconds
Thread count was 1 (of 40 available processors)

Solution count 6: 744 823 1024 ... 1167

Optimal solution found (tolerance 1.00e-04)
Best objective 7.440000000000e+02, best bound 7.440000000000e+02, gap 0.0000%

User-callback calls 9461, time in user-callback 0.02 sec
